c description: Random 3-CNF over 21 variables and 89 clauses
c generator: CNFgen (0.9.2)
c copyright: (C) 2012-2022 Massimo Lauria <massimo.lauria@uniroma1.it>
c url: https://massimolauria.net/cnfgen
c command line: cnfgen --output CNF_4.28/21_bit_89_850.cnf randkcnf 3 21 89
c
p cnf 21 89
-8 15 18 0
1 -15 20 0
-2 9 17 0
1 -3 -18 0
-6 -9 -20 0
1 16 21 0
-3 -6 -14 0
1 -15 -17 0
2 -5 12 0
-1 -13 -16 0
5 13 -21 0
17 -20 -21 0
-18 -19 -20 0
-8 -11 18 0
-5 -11 -19 0
-3 6 -8 0
-8 12 20 0
-3 -6 20 0
2 9 11 0
-8 -14 -15 0
4 -8 14 0
17 -18 21 0
-3 14 -18 0
3 -9 -12 0
7 10 21 0
-15 19 -21 0
-2 14 21 0
-5 15 19 0
-4 11 -15 0
-3 9 16 0
-5 -6 -20 0
7 11 -19 0
5 -10 -13 0
-8 -9 -14 0
-4 -11 -15 0
8 -11 -20 0
-11 -14 17 0
-9 11 -14 0
4 -5 11 0
3 -12 20 0
-4 -14 20 0
-1 16 17 0
-1 -8 12 0
10 -19 -21 0
2 -10 -15 0
14 17 21 0
-5 16 -21 0
-11 13 -16 0
6 -9 -15 0
-1 -10 -18 0
2 3 -18 0
10 -13 -15 0
2 15 -16 0
-3 -4 19 0
-5 8 17 0
6 7 -18 0
-12 13 19 0
-1 10 -19 0
-4 -11 -18 0
6 12 -19 0
1 -17 20 0
-5 -14 -15 0
-1 9 18 0
-3 5 8 0
-8 -15 -19 0
2 10 -13 0
-7 15 -17 0
-3 9 14 0
1 -12 -21 0
-13 -16 -21 0
3 10 -20 0
4 -7 19 0
-3 -9 -15 0
-13 -16 -17 0
-13 -15 -17 0
-1 -2 5 0
2 -3 -10 0
-4 -7 18 0
-1 14 19 0
10 12 17 0
-4 10 20 0
-8 13 -18 0
-2 4 -6 0
-12 -13 18 0
12 -13 -18 0
5 -11 21 0
7 11 15 0
-5 -20 -21 0
-2 3 5 0
